     Program PWSCF v.7.0 starts on  1Dec2023 at 18:36:59

     R & G space division:  proc/nbgrp/npool/nimage =      16

     Waiting for input...
     Reading input from standard input
Warning: card &CELL ignored
Warning: card    CELL_DYNAMICS = 'BFGS' , ignored
Warning: card    CELL_FACTOR = 1.5, ignored
Warning: card    PRESS = 0 , ignored
Warning: card / ignored

     Current dimensions of program PWSCF are:
     Max number of different atomic species (ntypx) = 10
     Max number of k-points (npk) =  40000
     Max angular momentum in pseudopotentials (lmaxx) =  4
     Message from routine iosys:
     pot_extrapolation='first_order' not available, using 'atomic'

     File ./C.update deleted, as requested

     File ./C.bfgs deleted, as requested
     Found identity + (  0.0000  0.5000 -0.5000) symmetry
     This is a supercell, fractional translations are disabled
     Message from routine setup:
     using ibrav=0 with symmetry is DISCOURAGED, use correct ibrav instead

     Subspace diagonalization in iterative solution of the eigenvalue problem:
     a serial algorithm will be used

     Using Slab Decomposition

     bravais-lattice index     =            0
     lattice parameter (alat)  =       6.6796  a.u.
     unit-cell volume          =     304.6392 (a.u.)^3
     number of atoms/cell      =            8
     number of atomic types    =            1
     number of electrons       =        32.00
     number of Kohn-Sham states=           20
     kinetic-energy cutoff     =      60.0000  Ry
     charge density cutoff     =     240.0000  Ry
     scf convergence threshold =      1.0E-12
     mixing beta               =       0.3000
     number of iterations used =            8  plain     mixing
     energy convergence thresh.=      1.0E-05
     force convergence thresh. =      1.0E-04
     Exchange-correlation= PBE
                           (   1   4   3   4   0   0   0)
     nstep                     =          100

     celldm(1)=   6.679583  celldm(2)=   0.000000  celldm(3)=   0.000000
     celldm(4)=   0.000000  celldm(5)=   0.000000  celldm(6)=   0.000000

     crystal axes: (cart. coord. in units of alat)
               a(1) = (   1.000000   0.000000   0.000000 )
               a(2) = (   0.000000   1.011041   0.000000 )
               a(3) = (   0.000000   0.000000   1.011041 )

     reciprocal axes: (cart. coord. in units 2 pi/alat)
               b(1) = (  1.000000  0.000000  0.000000 )
               b(2) = (  0.000000  0.989080  0.000000 )
               b(3) = (  0.000000  0.000000  0.989080 )

     PseudoPot. # 1 for C  read from file:
     ./C.pbe-n-rrkjus_psl.1.0.0.UPF
     MD5 check sum: 1fdd950c42eb37d8afe3dd2f8d12311e
     Pseudo is Ultrasoft + core correction, Zval =  4.0
     Generated using &quot;atomic&quot; code by A. Dal Corso  v.6.3MaX
     Using radial grid of 1073 points,  4 beta functions with:
                l(1) =   0
                l(2) =   0
                l(3) =   1
                l(4) =   1
     Q(r) pseudized with 0 coefficients

     atomic species   valence    mass     pseudopotential
        C              4.00    12.00000     C ( 1.00)

      8 Sym. Ops. (no inversion) found

   Cartesian axes

     site n.     atom                  positions (alat units)
         1           C   tau(   1) = (   0.2500000   0.7582808   0.2527603  )
         2           C   tau(   2) = (   0.0000000   0.0000000   0.5055205  )
         3           C   tau(   3) = (   0.2500000   0.2527603   0.7582808  )
         4           C   tau(   4) = (   0.0000000   0.5055205   0.0000000  )
         5           C   tau(   5) = (   0.7500000   0.7582808   0.7582808  )
         6           C   tau(   6) = (   0.5000000   0.0000000   0.0000000  )
         7           C   tau(   7) = (   0.7500000   0.2527603   0.2527603  )
         8           C   tau(   8) = (   0.5000000   0.5055205   0.5055205  )

     number of k points=    40  Gaussian smearing, width (Ry)=  0.0500
                       cart. coord. in units 2pi/alat
        k(    1) = (   0.0625000   0.0618175   0.0618175), wk =   0.0312500
        k(    2) = (   0.0625000   0.0618175   0.1854524), wk =   0.0625000
        k(    3) = (   0.0625000   0.0618175   0.3090873), wk =   0.0625000
        k(    4) = (   0.0625000   0.0618175   0.4327223), wk =   0.0625000
        k(    5) = (   0.0625000   0.1854524   0.1854524), wk =   0.0312500
        k(    6) = (   0.0625000   0.1854524   0.3090873), wk =   0.0625000
        k(    7) = (   0.0625000   0.1854524   0.4327223), wk =   0.0625000
        k(    8) = (   0.0625000   0.3090873   0.3090873), wk =   0.0312500
        k(    9) = (   0.0625000   0.3090873   0.4327223), wk =   0.0625000
        k(   10) = (   0.0625000   0.4327223   0.4327223), wk =   0.0312500
        k(   11) = (   0.1875000   0.0618175   0.0618175), wk =   0.0312500
        k(   12) = (   0.1875000   0.0618175   0.1854524), wk =   0.0625000
        k(   13) = (   0.1875000   0.0618175   0.3090873), wk =   0.0625000
        k(   14) = (   0.1875000   0.0618175   0.4327223), wk =   0.0625000
        k(   15) = (   0.1875000   0.1854524   0.1854524), wk =   0.0312500
        k(   16) = (   0.1875000   0.1854524   0.3090873), wk =   0.0625000
        k(   17) = (   0.1875000   0.1854524   0.4327223), wk =   0.0625000
        k(   18) = (   0.1875000   0.3090873   0.3090873), wk =   0.0312500
        k(   19) = (   0.1875000   0.3090873   0.4327223), wk =   0.0625000
        k(   20) = (   0.1875000   0.4327223   0.4327223), wk =   0.0312500
        k(   21) = (   0.3125000   0.0618175   0.0618175), wk =   0.0312500
        k(   22) = (   0.3125000   0.0618175   0.1854524), wk =   0.0625000
        k(   23) = (   0.3125000   0.0618175   0.3090873), wk =   0.0625000
        k(   24) = (   0.3125000   0.0618175   0.4327223), wk =   0.0625000
        k(   25) = (   0.3125000   0.1854524   0.1854524), wk =   0.0312500
        k(   26) = (   0.3125000   0.1854524   0.3090873), wk =   0.0625000
        k(   27) = (   0.3125000   0.1854524   0.4327223), wk =   0.0625000
        k(   28) = (   0.3125000   0.3090873   0.3090873), wk =   0.0312500
        k(   29) = (   0.3125000   0.3090873   0.4327223), wk =   0.0625000
        k(   30) = (   0.3125000   0.4327223   0.4327223), wk =   0.0312500
        k(   31) = (   0.4375000   0.0618175   0.0618175), wk =   0.0312500
        k(   32) = (   0.4375000   0.0618175   0.1854524), wk =   0.0625000
        k(   33) = (   0.4375000   0.0618175   0.3090873), wk =   0.0625000
        k(   34) = (   0.4375000   0.0618175   0.4327223), wk =   0.0625000
        k(   35) = (   0.4375000   0.1854524   0.1854524), wk =   0.0312500
        k(   36) = (   0.4375000   0.1854524   0.3090873), wk =   0.0625000
        k(   37) = (   0.4375000   0.1854524   0.4327223), wk =   0.0625000
        k(   38) = (   0.4375000   0.3090873   0.3090873), wk =   0.0312500
        k(   39) = (   0.4375000   0.3090873   0.4327223), wk =   0.0625000
        k(   40) = (   0.4375000   0.4327223   0.4327223), wk =   0.0312500

     Check: negative core charge=   -0.000041

     Initial potential from superposition of free atoms

     starting charge      31.9997, renormalised to      32.0000
     Starting wfcs are   32 randomized atomic wfcs

     Self-consistent Calculation

     iteration #  1     ecut=    60.00 Ry     beta= 0.30
     Davidson diagonalization with overlap
     ethr =  1.00E-02,  avg # of iterations =  2.4

     total energy              =     -99.40649612 Ry
     estimated scf accuracy    <       0.46411592 Ry

[...]

     iteration #  4     ecut=    60.00 Ry     beta= 0.30
     Davidson diagonalization with overlap
     c_bands:  1 eigenvalues not converged
     c_bands:  1 eigenvalues not converged
     c_bands:  1 eigenvalues not converged
     c_bands:  1 eigenvalues not converged
     ethr =  4.79E-06,  avg # of iterations = 12.2

[...]

     total energy              =     -99.34882723 Ry
     estimated scf accuracy    <          4.6E-12 Ry

     iteration # 14     ecut=    60.00 Ry     beta= 0.30
     Davidson diagonalization with overlap
     ethr =  1.00E-13,  avg # of iterations =  1.0

     End of self-consistent calculation

          k = 0.0625 0.0618 0.0618 (  2411 PWs)   bands (ev):

    -7.9955  -0.3490  -0.3490  -0.1953   1.6298   1.6298   1.8106   6.6630
     6.8139   6.8139   7.0803   7.2429   7.2429  12.6830  13.1790  13.2997
    18.0095  18.2741  18.2741  18.7816

[...]

          k = 0.4375 0.4327 0.4327 (  2382 PWs)   bands (ev):

    -3.0879  -2.3359  -2.3359  -2.3252   0.2184   0.2283   0.2283   0.9654
    10.1611  10.1611  10.3077  10.3385  10.4765  10.4765  10.5816  10.7742
    21.6283  21.7391  21.7400  21.8779

     the Fermi energy is    15.4920 ev

!    total energy              =     -99.34882723 Ry
     estimated scf accuracy    <          5.4E-13 Ry
     smearing contrib. (-TS)   =      -0.00000004 Ry
     internal energy E=F+TS    =     -99.34882720 Ry

     The total energy is F=E-TS. E is the sum of the following terms:
     one-electron contribution =      32.92487108 Ry
     hartree contribution      =       7.74854736 Ry
     xc contribution           =     -37.54673465 Ry
     ewald contribution        =    -102.47551098 Ry

     convergence has been achieved in  14 iterations

     Forces acting on atoms (cartesian axes, Ry/au):

     atom    1 type  1   force =    -0.00000010    0.00000002   -0.00000002
     atom    2 type  1   force =     0.00000000    0.00000000    0.00000000
     atom    3 type  1   force =    -0.00000010   -0.00000002    0.00000002
     atom    4 type  1   force =     0.00000000    0.00000000    0.00000000
     atom    5 type  1   force =     0.00000010    0.00000002    0.00000002
     atom    6 type  1   force =     0.00000000    0.00000000    0.00000000
     atom    7 type  1   force =     0.00000010   -0.00000002   -0.00000002
     atom    8 type  1   force =     0.00000000    0.00000000    0.00000000

     Total force =     0.000000     Total SCF correction =     0.000001
     SCF correction compared to forces is large: reduce conv_thr to get better values

     Computing stress (Cartesian axis) and pressure

          total   stress  (Ry/bohr**3)                   (kbar)     P=       36.12
   0.00070779   0.00000000   0.00000000          104.12        0.00        0.00
   0.00000000   0.00001440   0.00000000            0.00        2.12        0.00
   0.00000000   0.00000000   0.00001440            0.00        0.00        2.12

     BFGS Geometry Optimization
     Energy error            =      0.0E+00 Ry
     Gradient error          =      1.0E-07 Ry/Bohr

     bfgs converged in   1 scf cycles and   0 bfgs steps
     (criteria: energy <  1.0E-05 Ry, force <  1.0E-04 Ry/Bohr)

     End of BFGS Geometry Optimization

     Final energy             =     -99.3488272343 Ry
Begin final coordinates

ATOMIC_POSITIONS (crystal)
C             0.2500000000        0.7500000000        0.2500000000
C             0.0000000000        0.0000000000        0.5000000000
C             0.2500000000        0.2500000000        0.7500000000
C             0.0000000000        0.5000000000        0.0000000000
C             0.7500000000        0.7500000000        0.7500000000
C             0.5000000000        0.0000000000        0.0000000000
C             0.7500000000        0.2500000000        0.2500000000
C             0.5000000000        0.5000000000        0.5000000000
End final coordinates

     Writing all to output data dir ./C.save/

     General routines

     Parallel routines

   This run was terminated on:  18:37: 3   1Dec2023

   JOB DONE.