     Program PWSCF v.7.2 starts on 22Nov2024 at 11:52: 5

     Waiting for input...
     Reading input from standard input

     Current dimensions of program PWSCF are:
     Max number of different atomic species (ntypx) = 10
     Max number of k-points (npk) =  40000
     Max angular momentum in pseudopotentials (lmaxx) =  4
     Message from routine iosys:
     pot_extrapolation='first_order' not available, using 'atomic'
     Found identity + (  0.0000  0.5000 -0.5000) symmetry
     This is a supercell, fractional translations are disabled
     Message from routine setup:
     using ibrav=0 with symmetry is DISCOURAGED, use correct ibrav instead

     R & G space division:  proc/nbgrp/npool/nimage =       8
     Subspace diagonalization in iterative solution of the eigenvalue problem:
     a serial algorithm will be used

     Using Slab Decomposition

     bravais-lattice index     =            0
     lattice parameter (alat)  =       6.7533  a.u.
     unit-cell volume          =     307.8829 (a.u.)^3
     number of atoms/cell      =            8
     number of atomic types    =            1
     number of electrons       =        32.00
     number of Kohn-Sham states=           20
     kinetic-energy cutoff     =      60.0000  Ry
     charge density cutoff     =     240.0000  Ry
     scf convergence threshold =      1.0E-12
     mixing beta               =       0.3000
     number of iterations used =            8  plain     mixing
     energy convergence thresh.=      1.0E-05
     force convergence thresh. =      1.0E-04
     press convergence thresh. =      5.0E-01
     Exchange-correlation= PBE
                           (   1   4   3   4   0   0   0)
     nstep                     =         1000

     celldm(1)=   6.753333  celldm(2)=   0.000000  celldm(3)=   0.000000
     celldm(4)=   0.000000  celldm(5)=   0.000000  celldm(6)=   0.000000

     crystal axes: (cart. coord. in units of alat)
               a(1) = (   1.000000   0.000000   0.000000 )
               a(2) = (   0.000000   1.000000   0.000000 )
               a(3) = (   0.000000   0.000000   0.999611 )

     reciprocal axes: (cart. coord. in units 2 pi/alat)
               b(1) = (  1.000000  0.000000  0.000000 )
               b(2) = (  0.000000  1.000000  0.000000 )
               b(3) = (  0.000000  0.000000  1.000389 )

     PseudoPot. # 1 for C  read from file:
     ./C.pbe-n-rrkjus_psl.1.0.0.UPF
     MD5 check sum: 1fdd950c42eb37d8afe3dd2f8d12311e
     Pseudo is Ultrasoft + core correction, Zval =  4.0
     Generated using &quot;atomic&quot; code by A. Dal Corso  v.6.3MaX
     Using radial grid of 1073 points,  4 beta functions with:
                l(1) =   0
                l(2) =   0
                l(3) =   1
                l(4) =   1
     Q(r) pseudized with 0 coefficients

     atomic species   valence    mass     pseudopotential
        C              4.00    12.00000     C ( 1.00)

      8 Sym. Ops. (no inversion) found

   Cartesian axes

     site n.     atom                  positions (alat units)
         1           C   tau(   1) = (   0.2500000   0.7500000   0.2499028  )
         2           C   tau(   2) = (   0.0000000   0.0000000   0.4998055  )
         3           C   tau(   3) = (   0.2500000   0.2500000   0.7497083  )
         4           C   tau(   4) = (   0.0000000   0.5000000   0.0000000  )
         5           C   tau(   5) = (   0.7500000   0.7500000   0.7497083  )
         6           C   tau(   6) = (   0.5000000   0.0000000   0.0000000  )
         7           C   tau(   7) = (   0.7500000   0.2500000   0.2499028  )
         8           C   tau(   8) = (   0.5000000   0.5000000   0.4998055  )

     number of k points=    40  Gaussian smearing, width (Ry)=  0.0500
                       cart. coord. in units 2pi/alat
        k(    1) = (   0.0625000   0.0625000   0.0625243), wk =   0.0312500
        k(    2) = (   0.0625000   0.0625000   0.1875730), wk =   0.0312500
        k(    3) = (   0.0625000   0.0625000   0.3126216), wk =   0.0312500
        k(    4) = (   0.0625000   0.0625000   0.4376702), wk =   0.0312500
        k(    5) = (   0.0625000   0.1875000   0.0625243), wk =   0.0625000
        k(    6) = (   0.0625000   0.1875000   0.1875730), wk =   0.0625000
        k(    7) = (   0.0625000   0.1875000   0.3126216), wk =   0.0625000
        k(    8) = (   0.0625000   0.1875000   0.4376702), wk =   0.0625000
        k(    9) = (   0.0625000   0.3125000   0.0625243), wk =   0.0625000
        k(   10) = (   0.0625000   0.3125000   0.1875730), wk =   0.0625000
        k(   11) = (   0.0625000   0.3125000   0.3126216), wk =   0.0625000
        k(   12) = (   0.0625000   0.3125000   0.4376702), wk =   0.0625000
        k(   13) = (   0.0625000   0.4375000   0.0625243), wk =   0.0625000
        k(   14) = (   0.0625000   0.4375000   0.1875730), wk =   0.0625000
        k(   15) = (   0.0625000   0.4375000   0.3126216), wk =   0.0625000
        k(   16) = (   0.0625000   0.4375000   0.4376702), wk =   0.0625000
        k(   17) = (   0.1875000   0.1875000   0.0625243), wk =   0.0312500
        k(   18) = (   0.1875000   0.1875000   0.1875730), wk =   0.0312500
        k(   19) = (   0.1875000   0.1875000   0.3126216), wk =   0.0312500
        k(   20) = (   0.1875000   0.1875000   0.4376702), wk =   0.0312500
        k(   21) = (   0.1875000   0.3125000   0.0625243), wk =   0.0625000
        k(   22) = (   0.1875000   0.3125000   0.1875730), wk =   0.0625000
        k(   23) = (   0.1875000   0.3125000   0.3126216), wk =   0.0625000
        k(   24) = (   0.1875000   0.3125000   0.4376702), wk =   0.0625000
        k(   25) = (   0.1875000   0.4375000   0.0625243), wk =   0.0625000
        k(   26) = (   0.1875000   0.4375000   0.1875730), wk =   0.0625000
        k(   27) = (   0.1875000   0.4375000   0.3126216), wk =   0.0625000
        k(   28) = (   0.1875000   0.4375000   0.4376702), wk =   0.0625000
        k(   29) = (   0.3125000   0.3125000   0.0625243), wk =   0.0312500
        k(   30) = (   0.3125000   0.3125000   0.1875730), wk =   0.0312500
        k(   31) = (   0.3125000   0.3125000   0.3126216), wk =   0.0312500
        k(   32) = (   0.3125000   0.3125000   0.4376702), wk =   0.0312500
        k(   33) = (   0.3125000   0.4375000   0.0625243), wk =   0.0625000
        k(   34) = (   0.3125000   0.4375000   0.1875730), wk =   0.0625000
        k(   35) = (   0.3125000   0.4375000   0.3126216), wk =   0.0625000
        k(   36) = (   0.3125000   0.4375000   0.4376702), wk =   0.0625000
        k(   37) = (   0.4375000   0.4375000   0.0625243), wk =   0.0312500
        k(   38) = (   0.4375000   0.4375000   0.1875730), wk =   0.0312500
        k(   39) = (   0.4375000   0.4375000   0.3126216), wk =   0.0312500
        k(   40) = (   0.4375000   0.4375000   0.4376702), wk =   0.0312500

     Check: negative core charge=   -0.000040

     Initial potential from superposition of free atoms

     starting charge      31.9997, renormalised to      32.0000
     Starting wfcs are   32 randomized atomic wfcs

     Self-consistent Calculation

     iteration #  1     ecut=    60.00 Ry     beta= 0.30
     Davidson diagonalization with overlap
     ethr =  1.00E-02,  avg # of iterations =  2.5

     total energy              =     -99.40570092 Ry
     estimated scf accuracy    <       0.45286052 Ry

[...]

     iteration #  4     ecut=    60.00 Ry     beta= 0.30
     Davidson diagonalization with overlap
     c_bands:  2 eigenvalues not converged
     c_bands:  2 eigenvalues not converged
     ethr =  4.81E-06,  avg # of iterations = 12.4

[...]

     End of self-consistent calculation

          k = 0.0625 0.0625 0.0625 (  2436 PWs)   bands (ev):

    -8.0454  -0.4091  -0.4091  -0.4037   1.5622   1.5622   1.5685   6.6358
     6.6411   6.6411   7.0561   7.0618   7.0618  12.5060  13.0442  13.0482
    17.9639  17.9731  17.9732  18.7287

[...]

     the Fermi energy is    15.3190 ev

!    total energy              =     -99.34993586 Ry
     estimated scf accuracy    <          4.4E-13 Ry
     smearing contrib. (-TS)   =      -0.00000003 Ry
     internal energy E=F+TS    =     -99.34993583 Ry

     The total energy is F=E-TS. E is the sum of the following terms:
     one-electron contribution =      32.44425803 Ry
     hartree contribution      =       7.79342641 Ry
     xc contribution           =     -37.47514204 Ry
     ewald contribution        =    -102.11247824 Ry

     convergence has been achieved in  15 iterations

     Forces acting on atoms (cartesian axes, Ry/au):

     atom    1 type  1   force =    -0.00000001    0.00000001   -0.00000005
     atom    2 type  1   force =     0.00000000    0.00000000    0.00000000
     atom    3 type  1   force =    -0.00000001   -0.00000001    0.00000005
     atom    4 type  1   force =     0.00000000    0.00000000    0.00000000
     atom    5 type  1   force =     0.00000001    0.00000001    0.00000005
     atom    6 type  1   force =     0.00000000    0.00000000    0.00000000
     atom    7 type  1   force =     0.00000001   -0.00000001   -0.00000005
     atom    8 type  1   force =     0.00000000    0.00000000    0.00000000
     The non-local contrib.  to forces
     atom    1 type  1   force =    -0.00000007    0.00000007   -0.00000021
     atom    2 type  1   force =     0.00000000    0.00000000    0.00000000
     atom    3 type  1   force =    -0.00000007   -0.00000007    0.00000021
     atom    4 type  1   force =     0.00000000    0.00000000    0.00000000
     atom    5 type  1   force =     0.00000007    0.00000007    0.00000021
     atom    6 type  1   force =     0.00000000    0.00000000    0.00000000
     atom    7 type  1   force =     0.00000007   -0.00000007   -0.00000021
     atom    8 type  1   force =     0.00000000    0.00000000    0.00000000
     The ionic contribution  to forces
     atom    1 type  1   force =    -0.00000000   -0.00000000   -0.00000000
     atom    2 type  1   force =    -0.00000000   -0.00000000    0.00000000
     atom    3 type  1   force =    -0.00000000    0.00000000   -0.00000000
     atom    4 type  1   force =    -0.00000000   -0.00000000    0.00000000
     atom    5 type  1   force =    -0.00000000   -0.00000000   -0.00000000
     atom    6 type  1   force =    -0.00000000   -0.00000000    0.00000000
     atom    7 type  1   force =     0.00000000    0.00000000   -0.00000000
     atom    8 type  1   force =     0.00000000   -0.00000000    0.00000000
     The local contribution  to forces
     atom    1 type  1   force =    -0.00000006    0.00000006   -0.00000031
     atom    2 type  1   force =    -0.00000000    0.00000000    0.00000000
     atom    3 type  1   force =    -0.00000006   -0.00000006    0.00000031
     atom    4 type  1   force =    -0.00000000    0.00000000    0.00000000
     atom    5 type  1   force =     0.00000006    0.00000006    0.00000031
     atom    6 type  1   force =     0.00000000   -0.00000000   -0.00000000
     atom    7 type  1   force =     0.00000006   -0.00000006   -0.00000031
     atom    8 type  1   force =     0.00000000    0.00000000    0.00000000
     The core correction contribution to forces
[...]

[...]

     Threshold (ethr) on eigenvalues was too large:
     Diagonalizing with lowered threshold

     Davidson diagonalization with overlap
     ethr =  4.94E-08,  avg # of iterations =  1.0

[...]

     Total force =     0.000000     Total SCF correction =     0.000000

[...]

     number of scf cycles    =   3
     number of bfgs steps    =   1

     enthalpy           old  =     -99.3499358569 Ry
     enthalpy           new  =     -99.3499626603 Ry

     CASE: enthalpy          _new < enthalpy          _old

     new trust radius        =       0.0004301525 bohr
     new conv_thr            =            1.0E-14 Ry

     new unit-cell volume =    307.14942 a.u.^3 (    45.51485 Ang^3 )
     density =      3.50241 g/cm^3

[...]

ATOMIC_POSITIONS (crystal)
C             0.2500000004        0.7499999996        0.2500000011
C             0.0000000000        0.0000000000        0.5000000000
C             0.2500000004        0.2500000004        0.7499999989
C             0.0000000000        0.5000000000        0.0000000000
C             0.7499999996        0.7499999996        0.7499999989
C             0.5000000000        0.0000000000        0.0000000000
C             0.7499999996        0.2500000004        0.2500000011
C             0.5000000000        0.5000000000        0.5000000000

     Writing config-only to output data dir ./C.save/
     NEW-OLD atomic charge density approx. for the potential

     Check: negative core charge=   -0.000040
     extrapolated charge   32.00079, renormalised to   32.00000

[...]

     Threshold (ethr) on eigenvalues was too large:
     Diagonalizing with lowered threshold

     Davidson diagonalization with overlap
     ethr =  7.57E-12,  avg # of iterations =  4.8

[...]

     Total force =     0.000000     Total SCF correction =     0.000000

[...]

     Energy error            =      5.0E-08 Ry
     Gradient error          =      1.0E-08 Ry/Bohr
     Cell gradient error     =      4.4E-01 kbar

     bfgs converged in   4 scf cycles and   2 bfgs steps
     (criteria: energy <  1.0E-05 Ry, force <  1.0E-04 Ry/Bohr, cell <  5.0E-01 kbar)

     End of BFGS Geometry Optimization

     Final enthalpy           =     -99.3499627102 Ry

     File ./C.bfgs deleted, as requested
Begin final coordinates
     new unit-cell volume =    307.14942 a.u.^3 (    45.51485 Ang^3 )
     density =      3.50241 g/cm^3

CELL_PARAMETERS (angstrom)
   3.570331383   0.000000000   0.000000000
   0.000000000   3.570331383   0.000000000
   0.000000000   0.000000000   3.570557570

ATOMIC_POSITIONS (crystal)
C             0.2500000004        0.7499999996        0.2500000011
C             0.0000000000        0.0000000000        0.5000000000
C             0.2500000004        0.2500000004        0.7499999989
C             0.0000000000        0.5000000000        0.0000000000
C             0.7499999996        0.7499999996        0.7499999989
C             0.5000000000        0.0000000000        0.0000000000
C             0.7499999996        0.2500000004        0.2500000011
C             0.5000000000        0.5000000000        0.5000000000
End final coordinates

     Writing config-only to output data dir ./C.save/

     Final scf calculation at the relaxed structure.
     The G-vectors are recalculated for the final unit cell
     Results may differ from those at the preceding step.

     Using Slab Decomposition

     bravais-lattice index     =            0
     lattice parameter (alat)  =       6.7533  a.u.
     unit-cell volume          =     307.1494 (a.u.)^3
     number of atoms/cell      =            8
     number of atomic types    =            1
     number of electrons       =        32.00
     number of Kohn-Sham states=           20
     kinetic-energy cutoff     =      60.0000  Ry
     charge density cutoff     =     240.0000  Ry
     scf convergence threshold =      1.0E-14
     mixing beta               =       0.3000
     number of iterations used =            8  plain     mixing
     press convergence thresh. =      5.0E-01
     Exchange-correlation= PBE
                           (   1   4   3   4   0   0   0)

     celldm(1)=   6.753333  celldm(2)=   0.000000  celldm(3)=   0.000000
     celldm(4)=   0.000000  celldm(5)=   0.000000  celldm(6)=   0.000000

     crystal axes: (cart. coord. in units of alat)
               a(1) = (   0.999055   0.000000   0.000000 )
               a(2) = (   0.000000   0.999055   0.000000 )
               a(3) = (   0.000000   0.000000   0.999118 )

     reciprocal axes: (cart. coord. in units 2 pi/alat)
               b(1) = (  1.000946  0.000000  0.000000 )
               b(2) = (  0.000000  1.000946  0.000000 )
               b(3) = (  0.000000  0.000000  1.000883 )

     PseudoPot. # 1 for C  read from file:
     ./C.pbe-n-rrkjus_psl.1.0.0.UPF
     MD5 check sum: 1fdd950c42eb37d8afe3dd2f8d12311e
     Pseudo is Ultrasoft + core correction, Zval =  4.0
     Generated using &quot;atomic&quot; code by A. Dal Corso  v.6.3MaX
     Using radial grid of 1073 points,  4 beta functions with:
                l(1) =   0
                l(2) =   0
                l(3) =   1
                l(4) =   1
     Q(r) pseudized with 0 coefficients

     atomic species   valence    mass     pseudopotential
        C              4.00    12.00000     C ( 1.00)

      8 Sym. Ops. (no inversion) found

   Cartesian axes

     site n.     atom                  positions (alat units)
         1           C   tau(   1) = (   0.2497636   0.7492909   0.2497795  )
         2           C   tau(   2) = (   0.0000000   0.0000000   0.4995589  )
         3           C   tau(   3) = (   0.2497636   0.2497636   0.7493384  )
         4           C   tau(   4) = (   0.0000000   0.4995273   0.0000000  )
         5           C   tau(   5) = (   0.7492909   0.7492909   0.7493384  )
         6           C   tau(   6) = (   0.4995273   0.0000000   0.0000000  )
         7           C   tau(   7) = (   0.7492909   0.2497636   0.2497795  )
         8           C   tau(   8) = (   0.4995273   0.4995273   0.4995589  )

     number of k points=    40  Gaussian smearing, width (Ry)=  0.0500
                       cart. coord. in units 2pi/alat
        k(    1) = (   0.0625591   0.0625591   0.0625552), wk =   0.0312500
        k(    2) = (   0.0625591   0.0625591   0.1876655), wk =   0.0312500
        k(    3) = (   0.0625591   0.0625591   0.3127759), wk =   0.0312500
        k(    4) = (   0.0625591   0.0625591   0.4378863), wk =   0.0312500
        k(    5) = (   0.0625591   0.1876774   0.0625552), wk =   0.0625000
        k(    6) = (   0.0625591   0.1876774   0.1876655), wk =   0.0625000
        k(    7) = (   0.0625591   0.1876774   0.3127759), wk =   0.0625000
        k(    8) = (   0.0625591   0.1876774   0.4378863), wk =   0.0625000
        k(    9) = (   0.0625591   0.3127957   0.0625552), wk =   0.0625000
        k(   10) = (   0.0625591   0.3127957   0.1876655), wk =   0.0625000
        k(   11) = (   0.0625591   0.3127957   0.3127759), wk =   0.0625000
        k(   12) = (   0.0625591   0.3127957   0.4378863), wk =   0.0625000
        k(   13) = (   0.0625591   0.4379140   0.0625552), wk =   0.0625000
        k(   14) = (   0.0625591   0.4379140   0.1876655), wk =   0.0625000
        k(   15) = (   0.0625591   0.4379140   0.3127759), wk =   0.0625000
        k(   16) = (   0.0625591   0.4379140   0.4378863), wk =   0.0625000
        k(   17) = (   0.1876774   0.1876774   0.0625552), wk =   0.0312500
        k(   18) = (   0.1876774   0.1876774   0.1876655), wk =   0.0312500
        k(   19) = (   0.1876774   0.1876774   0.3127759), wk =   0.0312500
        k(   20) = (   0.1876774   0.1876774   0.4378863), wk =   0.0312500
        k(   21) = (   0.1876774   0.3127957   0.0625552), wk =   0.0625000
        k(   22) = (   0.1876774   0.3127957   0.1876655), wk =   0.0625000
        k(   23) = (   0.1876774   0.3127957   0.3127759), wk =   0.0625000
        k(   24) = (   0.1876774   0.3127957   0.4378863), wk =   0.0625000
        k(   25) = (   0.1876774   0.4379140   0.0625552), wk =   0.0625000
        k(   26) = (   0.1876774   0.4379140   0.1876655), wk =   0.0625000
        k(   27) = (   0.1876774   0.4379140   0.3127759), wk =   0.0625000
        k(   28) = (   0.1876774   0.4379140   0.4378863), wk =   0.0625000
        k(   29) = (   0.3127957   0.3127957   0.0625552), wk =   0.0312500
        k(   30) = (   0.3127957   0.3127957   0.1876655), wk =   0.0312500
        k(   31) = (   0.3127957   0.3127957   0.3127759), wk =   0.0312500
        k(   32) = (   0.3127957   0.3127957   0.4378863), wk =   0.0312500
        k(   33) = (   0.3127957   0.4379140   0.0625552), wk =   0.0625000
        k(   34) = (   0.3127957   0.4379140   0.1876655), wk =   0.0625000
        k(   35) = (   0.3127957   0.4379140   0.3127759), wk =   0.0625000
        k(   36) = (   0.3127957   0.4379140   0.4378863), wk =   0.0625000
        k(   37) = (   0.4379140   0.4379140   0.0625552), wk =   0.0312500
        k(   38) = (   0.4379140   0.4379140   0.1876655), wk =   0.0312500
        k(   39) = (   0.4379140   0.4379140   0.3127759), wk =   0.0312500
        k(   40) = (   0.4379140   0.4379140   0.4378863), wk =   0.0312500

     Check: negative core charge=   -0.000040

     Initial potential from superposition of free atoms

     starting charge      31.9997, renormalised to      32.0000
     Starting wfcs are   32 randomized atomic wfcs

     Self-consistent Calculation

     iteration #  1     ecut=    60.00 Ry     beta= 0.30
     Davidson diagonalization with overlap
     c_bands:  1 eigenvalues not converged
     c_bands:  2 eigenvalues not converged
     c_bands:  1 eigenvalues not converged
     c_bands:  1 eigenvalues not converged
     c_bands:  2 eigenvalues not converged
     c_bands:  1 eigenvalues not converged
     c_bands:  1 eigenvalues not converged
     c_bands:  1 eigenvalues not converged
     c_bands:  1 eigenvalues not converged
     c_bands:  1 eigenvalues not converged
     c_bands:  2 eigenvalues not converged
     c_bands:  1 eigenvalues not converged
     c_bands:  1 eigenvalues not converged
     c_bands:  4 eigenvalues not converged
     c_bands:  1 eigenvalues not converged
     c_bands:  3 eigenvalues not converged
     c_bands:  4 eigenvalues not converged
     c_bands:  3 eigenvalues not converged
     ethr =  1.00E-06,  avg # of iterations = 17.9

[...]

     total energy              =     -99.34993847 Ry
     estimated scf accuracy    <          7.7E-14 Ry

     iteration # 14     ecut=    60.00 Ry     beta= 0.30
     Davidson diagonalization with overlap
     ethr =  1.00E-13,  avg # of iterations =  1.0

     End of self-consistent calculation

[...]

          k = 0.4379 0.4379 0.4379 (  2392 PWs)   bands (ev):

    -3.1609  -2.4159  -2.4158  -2.4158   0.1639   0.1639   0.1639   0.8941
    10.1076  10.1085  10.1085  10.2805  10.2805  10.2814  10.5497  10.5509
    21.5337  21.5338  21.5347  21.7379

     the Fermi energy is    15.3647 ev

!    total energy              =     -99.34993847 Ry
     estimated scf accuracy    <          3.6E-15 Ry
     smearing contrib. (-TS)   =      -0.00000003 Ry
     internal energy E=F+TS    =     -99.34993844 Ry

     The total energy is F=E-TS. E is the sum of the following terms:
     one-electron contribution =      32.55144462 Ry
     hartree contribution      =       7.78361192 Ry
     xc contribution           =     -37.49130085 Ry
     ewald contribution        =    -102.19369413 Ry

     convergence has been achieved in  14 iterations

     Forces acting on atoms (cartesian axes, Ry/au):

     atom    1 type  1   force =     0.00000000   -0.00000000   -0.00000000
     atom    2 type  1   force =     0.00000000    0.00000000    0.00000000
     atom    3 type  1   force =     0.00000000    0.00000000    0.00000000
     atom    4 type  1   force =     0.00000000    0.00000000    0.00000000
     atom    5 type  1   force =    -0.00000000   -0.00000000    0.00000000
     atom    6 type  1   force =     0.00000000    0.00000000    0.00000000
     atom    7 type  1   force =    -0.00000000    0.00000000   -0.00000000
     atom    8 type  1   force =     0.00000000    0.00000000    0.00000000
     The non-local contrib.  to forces
     atom    1 type  1   force =     0.00000001   -0.00000001    0.00000000
     atom    2 type  1   force =     0.00000000    0.00000000    0.00000000
     atom    3 type  1   force =     0.00000001    0.00000001   -0.00000000
     atom    4 type  1   force =     0.00000000    0.00000000    0.00000000
     atom    5 type  1   force =    -0.00000001   -0.00000001   -0.00000000
     atom    6 type  1   force =     0.00000000    0.00000000    0.00000000
     atom    7 type  1   force =    -0.00000001    0.00000001    0.00000000
     atom    8 type  1   force =     0.00000000    0.00000000    0.00000000
     The ionic contribution  to forces
     atom    1 type  1   force =    -0.00000001    0.00000001   -0.00000004
     atom    2 type  1   force =    -0.00000000   -0.00000000    0.00000000
     atom    3 type  1   force =    -0.00000001   -0.00000001    0.00000004
     atom    4 type  1   force =    -0.00000000    0.00000000   -0.00000000
     atom    5 type  1   force =     0.00000001    0.00000001    0.00000004
     atom    6 type  1   force =     0.00000000    0.00000000   -0.00000000
     atom    7 type  1   force =     0.00000001   -0.00000001   -0.00000004
     atom    8 type  1   force =     0.00000000    0.00000000    0.00000000
     The local contribution  to forces
     atom    1 type  1   force =     0.00000003   -0.00000003    0.00000005
     atom    2 type  1   force =    -0.00000000    0.00000000    0.00000000
     atom    3 type  1   force =     0.00000003    0.00000003   -0.00000005
     atom    4 type  1   force =     0.00000000    0.00000000   -0.00000000
     atom    5 type  1   force =    -0.00000003   -0.00000003   -0.00000005
     atom    6 type  1   force =     0.00000000   -0.00000000   -0.00000000
     atom    7 type  1   force =    -0.00000003    0.00000003    0.00000005
     atom    8 type  1   force =     0.00000000    0.00000000    0.00000000
     The core correction contribution to forces
     atom    1 type  1   force =    -0.00000000    0.00000000   -0.00000000
     atom    2 type  1   force =     0.00000000    0.00000000   -0.00000000
     atom    3 type  1   force =    -0.00000000   -0.00000000    0.00000000
     atom    4 type  1   force =    -0.00000000   -0.00000000    0.00000000
     atom    5 type  1   force =     0.00000000    0.00000000    0.00000000
     atom    6 type  1   force =    -0.00000000    0.00000000    0.00000000
     atom    7 type  1   force =     0.00000000   -0.00000000   -0.00000000
     atom    8 type  1   force =    -0.00000000   -0.00000000   -0.00000000
     The Hubbard contrib.    to forces
     atom    1 type  1   force =     0.00000000    0.00000000    0.00000000
     atom    2 type  1   force =     0.00000000    0.00000000    0.00000000
     atom    3 type  1   force =     0.00000000    0.00000000    0.00000000
     atom    4 type  1   force =     0.00000000    0.00000000    0.00000000
     atom    5 type  1   force =     0.00000000    0.00000000    0.00000000
     atom    6 type  1   force =     0.00000000    0.00000000    0.00000000
     atom    7 type  1   force =     0.00000000    0.00000000    0.00000000
     atom    8 type  1   force =     0.00000000    0.00000000    0.00000000
     The SCF correction term to forces
     atom    1 type  1   force =    -0.00000002    0.00000002   -0.00000001
     atom    2 type  1   force =    -0.00000000    0.00000000    0.00000000
     atom    3 type  1   force =    -0.00000002   -0.00000002    0.00000001
     atom    4 type  1   force =    -0.00000000    0.00000000    0.00000000
     atom    5 type  1   force =     0.00000002    0.00000002    0.00000001
     atom    6 type  1   force =    -0.00000000    0.00000000    0.00000000
     atom    7 type  1   force =     0.00000002   -0.00000002   -0.00000001
     atom    8 type  1   force =    -0.00000000    0.00000000    0.00000000

     Total force =     0.000000     Total SCF correction =     0.000000
     SCF correction compared to forces is large: reduce conv_thr to get better values

     Computing stress (Cartesian axis) and pressure

          total   stress  (Ry/bohr**3)                   (kbar)     P=       -0.04
   0.00000105   0.00000000   0.00000000            0.15        0.00        0.00
   0.00000000   0.00000105   0.00000000            0.00        0.15        0.00
   0.00000000   0.00000000  -0.00000295            0.00        0.00       -0.43

     Writing all to output data dir ./C.save/

     General routines

     Parallel routines

   This run was terminated on:  11:52:25  22Nov2024

   JOB DONE.