     Program PHONON v.7.0 starts on  1Dec2023 at 15:27:23

     R & G space division:  proc/nbgrp/npool/nimage =       8

     Waiting for input...
     Reading input from standard input
      Title line not specified: using 'default'.

     Reading xml data from directory:

     ./GaAs.save/
     file Ga.pbe-dn-kjpaw_psl.1.0.0.UPF: wavefunction(s)  4S renormalized

     IMPORTANT: XC functional enforced from input :
     Exchange-correlation= PBE
                           (   1   4   3   4   0   0   0)
     Any further DFT definition will be discarded
     Please, verify this is what you really want

     Using Slab Decomposition

     Reading collected, re-writing distributed wavefunctions

     Dynamical matrices for ( 2, 2, 2)  uniform grid of q-points
     (   3 q-points):
       N         xq(1)         xq(2)         xq(3)
       1   0.000000000   0.000000000   0.000000000
       2   0.500000000  -0.500000000   0.500000000
       3   0.000000000  -1.000000000   0.000000000

     Calculation of q =    0.0000000   0.0000000   0.0000000

     default

     bravais-lattice index     =            2
     lattice parameter (alat)  =      10.8615  a.u.
     unit-cell volume          =     320.3354 (a.u.)^3
     number of atoms/cell      =            2
     number of atomic types    =            2
     kinetic-energy cut-off    =      80.0000  Ry
     charge density cut-off    =     640.0000  Ry
     convergence threshold     =      1.0E-14
     beta                      =       0.7000
     number of iterations used =            4
     Exchange-correlation= PBE
                           (   1   4   3   4   0   0   0)

     celldm(1)=   10.86146  celldm(2)=    0.00000  celldm(3)=    0.00000
     celldm(4)=    0.00000  celldm(5)=    0.00000  celldm(6)=    0.00000

     crystal axes: (cart. coord. in units of alat)
               a(1) = ( -0.5000  0.0000  0.5000 )
               a(2) = (  0.0000  0.5000  0.5000 )
               a(3) = ( -0.5000  0.5000  0.0000 )

     reciprocal axes: (cart. coord. in units 2 pi/alat)
               b(1) = ( -1.0000 -1.0000  1.0000 )
               b(2) = (  1.0000  1.0000  1.0000 )
               b(3) = ( -1.0000  1.0000 -1.0000 )

     Atoms inside the unit cell:

     Cartesian axes

     site n.  atom      mass           positions (alat units)
        1     Ga  69.7230   tau(    1) = (    0.00000    0.00000    0.00000  )
        2     As  74.9216   tau(    2) = (    0.25000    0.25000    0.25000  )

     Computing dynamical matrix for
                    q = (   0.0000000   0.0000000   0.0000000 )

     25 Sym.Ops. (with q -> -q+G )

     G cutoff = 1912.4796  (  10955 G-vectors)     FFT grid: ( 64, 64, 64)
     G cutoff =  956.2398  (   3868 G-vectors)  smooth grid: ( 45, 45, 45)
     number of k points=    29

     PseudoPot. # 1 for Ga read from file:
     ./Ga.pbe-dn-kjpaw_psl.1.0.0.UPF
     MD5 check sum: 9ec968fb6aa164ad922e5aaa76dd79f0
     Pseudo is Projector augmented-wave + core cor, Zval = 13.0
     Generated using &quot;atomic&quot; code by A. Dal Corso  v.6.3
     Shape of augmentation charge: PSQ
     Using radial grid of 1205 points,  6 beta functions with:
                l(1) =   0
                l(2) =   0
                l(3) =   1
                l(4) =   1
                l(5) =   2
                l(6) =   2
     Q(r) pseudized with 0 coefficients

     PseudoPot. # 2 for As read from file:
     ./As.pbe-n-kjpaw_psl.1.0.0.UPF
     MD5 check sum: 21b474db91924651be503153fb2dbf55
     Pseudo is Projector augmented-wave + core cor, Zval =  5.0
     Generated using &quot;atomic&quot; code by A. Dal Corso  v.6.3
     Shape of augmentation charge: PSQ
     Using radial grid of 1209 points,  4 beta functions with:
                l(1) =   0
                l(2) =   0
                l(3) =   1
                l(4) =   1
     Q(r) pseudized with 0 coefficients

     Mode symmetry, T_d (-43m)  point group:

     Electric field:
     Dielectric constant
     Born effective charges in two ways

     Atomic displacements:
     There are    2 irreducible representations

     Representation     1      3 modes -  To be done

[...]

     Alpha used in Ewald sum =   2.8000

     Electric Fields Calculation

      thresh= 1.000E-02 alpha_mix =  0.700 |ddv_scf|^2 =  1.443E-07

[...]

     End of electric fields calculation

          Dielectric constant in cartesian axis

          (     391.786120376       0.000000000       0.000000000 )
          (       0.000000000     391.786120376       0.000000000 )
          (      -0.000000000       0.000000000     391.786120376 )

          Effective charges (d Force / dE) in cartesian axis without acoustic sum rule applied (asr)

           atom      1   Ga Mean Z*:        2.68551
      Ex  (        2.68551       -0.00000        0.00000 )
      Ey  (       -0.00000        2.68551        0.00000 )
      Ez  (       -0.00000       -0.00000        2.68551 )
           atom      2   As Mean Z*:       -3.19434
      Ex  (       -3.19434        0.00000        0.00000 )
      Ey  (        0.00000       -3.19434        0.00000 )
      Ez  (        0.00000        0.00000       -3.19434 )

          Effective charges Sum: Mean:       -0.50882
             -0.50882       -0.00000        0.00000
              0.00000       -0.50882        0.00000
              0.00000        0.00000       -0.50882

          Effective charges (d Force / dE) in cartesian axis with asr applied:
           atom      1   Ga Mean Z*:        2.93993
      E*x (        2.93993       -0.00000        0.00000 )
      E*y (       -0.00000        2.93993        0.00000 )
      E*z (       -0.00000       -0.00000        2.93993 )
           atom      2   As Mean Z*:       -2.93993
      E*x (       -2.93993        0.00000        0.00000 )
      E*y (        0.00000       -2.93993        0.00000 )
      E*z (        0.00000        0.00000       -2.93993 )

     Representation #   1 modes #   1   2   3

     Self-consistent Calculation

[...]

     End of self-consistent calculation

     Convergence has been achieved

[...]

     Number of q in the star =    1
     List of q in the star:
          1   0.000000000   0.000000000   0.000000000

          Dielectric constant in cartesian axis

          (     391.786120376       0.000000000       0.000000000 )
          (       0.000000000     391.786120376       0.000000000 )
          (      -0.000000000       0.000000000     391.786120376 )

          Effective charges (d Force / dE) in cartesian axis without acoustic sum rule applied (asr)

           atom      1   Ga Mean Z*:        2.68551
      Ex  (        2.68551       -0.00000        0.00000 )
      Ey  (       -0.00000        2.68551        0.00000 )
      Ez  (       -0.00000       -0.00000        2.68551 )
           atom      2   As Mean Z*:       -3.19434
      Ex  (       -3.19434        0.00000        0.00000 )
      Ey  (        0.00000       -3.19434        0.00000 )
      Ez  (        0.00000        0.00000       -3.19434 )

          Effective charges Sum: Mean:       -0.50882
             -0.50882       -0.00000        0.00000
              0.00000       -0.50882        0.00000
              0.00000        0.00000       -0.50882

          Effective charges (d Force / dE) in cartesian axis with asr applied:
           atom      1   Ga Mean Z*:        2.93993
      E*x (        2.93993       -0.00000        0.00000 )
      E*y (       -0.00000        2.93993        0.00000 )
      E*z (       -0.00000       -0.00000        2.93993 )
           atom      2   As Mean Z*:       -2.93993
      E*x (       -2.93993        0.00000        0.00000 )
      E*y (        0.00000       -2.93993        0.00000 )
      E*z (        0.00000        0.00000       -2.93993 )

          Effective charges (d P / du) in cartesian axis

           atom      1   Ga
      Px  (        2.68555       -0.00000       -0.00000 )
      Py  (       -0.00000        2.68555        0.00000 )
      Pz  (       -0.00000        0.00000        2.68555 )
           atom      2   As
      Px  (       -3.19273        0.00000       -0.00000 )
      Py  (        0.00000       -3.19273       -0.00000 )
      Pz  (       -0.00000        0.00000       -3.19273 )

     Diagonalizing the dynamical matrix

     q = (    0.000000000   0.000000000   0.000000000 )

     freq (    1) =      -0.476132 [THz] =     -15.882062 [cm-1]
     freq (    2) =      -0.476132 [THz] =     -15.882062 [cm-1]
     freq (    3) =      -0.476132 [THz] =     -15.882062 [cm-1]
     freq (    4) =       7.615898 [THz] =     254.039028 [cm-1]
     freq (    5) =       7.615898 [THz] =     254.039028 [cm-1]
     freq (    6) =       7.615898 [THz] =     254.039028 [cm-1]

     Mode symmetry, T_d (-43m)  point group:

     freq (   1-   3) =        -15.9  [cm-1]   --> T_2  G_15 P_4   I+R
     freq (   4-   6) =        254.0  [cm-1]   --> T_2  G_15 P_4   I+R

[...]

     Subspace diagonalization in iterative solution of the eigenvalue problem:
     a serial algorithm will be used

[...]

     Title:
     default

     bravais-lattice index     =            2
     lattice parameter (alat)  =      10.8615  a.u.
     unit-cell volume          =     320.3354 (a.u.)^3
     number of atoms/cell      =            2
     number of atomic types    =            2
     number of electrons       =        18.00
     number of Kohn-Sham states=            9
     kinetic-energy cutoff     =      80.0000  Ry
     charge density cutoff     =     640.0000  Ry
     Exchange-correlation= PBE
                           (   1   4   3   4   0   0   0)

[...]

     atomic species   valence    mass     pseudopotential
        Ga            13.00    69.72300     Ga( 1.00)
        As             5.00    74.92159     As( 1.00)

     24 Sym. Ops. (no inversion) found

[...]

     site n.     atom                  positions (alat units)
         1           Ga  tau(   1) = (   0.0000000   0.0000000   0.0000000  )
         2           As  tau(   2) = (   0.2500000   0.2500000   0.2500000  )

     number of k points=   130

     Number of k-points >= 100: set verbosity='high' to print them.

     The potential is recalculated from file :
     ./_ph0/GaAs.save/charge-density

     Starting wfcs are   13 atomic wfcs
     Checking if some PAW data can be deallocated...

     Band Structure Calculation
     Davidson diagonalization with overlap

     ethr =  5.56E-11,  avg # of iterations = 27.8

     End of band structure calculation

     Number of k-points >= 100: set verbosity='high' to print the bands.

     highest occupied level (ev):     6.2984

     Writing config to output data dir ./_ph0/GaAs.save/

[...]

     Mode symmetry, C_3v (3m)   point group:

[...]

     Representation #   1 mode #   1

[...]

     Mode symmetry, C_3v (3m)   point group:

     freq (   1-   2) =         61.0  [cm-1]   --> E    L_3
     freq (   3-   3) =        196.5  [cm-1]   --> A_1  L_1
     freq (   4-   4) =        219.8  [cm-1]   --> A_1  L_1
     freq (   5-   6) =        244.5  [cm-1]   --> E    L_3

     Calculation of q =    0.0000000  -1.0000000   0.0000000

     Using Slab Decomposition

     Title:
     default

     bravais-lattice index     =            2
     lattice parameter (alat)  =      10.8615  a.u.
     unit-cell volume          =     320.3354 (a.u.)^3
     number of atoms/cell      =            2
     number of atomic types    =            2
     number of electrons       =        18.00
     number of Kohn-Sham states=            9
     kinetic-energy cutoff     =      80.0000  Ry
     charge density cutoff     =     640.0000  Ry
     Exchange-correlation= PBE
                           (   1   4   3   4   0   0   0)

[...]

     atomic species   valence    mass     pseudopotential
        Ga            13.00    69.72300     Ga( 1.00)
        As             5.00    74.92159     As( 1.00)

     24 Sym. Ops. (no inversion) found

[...]

     site n.     atom                  positions (alat units)
         1           Ga  tau(   1) = (   0.0000000   0.0000000   0.0000000  )
         2           As  tau(   2) = (   0.2500000   0.2500000   0.2500000  )

     number of k points=   118

     Number of k-points >= 100: set verbosity='high' to print them.

     The potential is recalculated from file :
     ./_ph0/GaAs.save/charge-density

     Starting wfcs are   13 atomic wfcs
     Checking if some PAW data can be deallocated...

     Band Structure Calculation
     Davidson diagonalization with overlap

     ethr =  5.56E-11,  avg # of iterations = 27.8

     End of band structure calculation

     Number of k-points >= 100: set verbosity='high' to print the bands.

     highest occupied level (ev):     6.2984

     Writing config to output data dir ./_ph0/GaAs.save/

     default

     bravais-lattice index     =            2
     lattice parameter (alat)  =      10.8615  a.u.
     unit-cell volume          =     320.3354 (a.u.)^3
     number of atoms/cell      =            2
     number of atomic types    =            2
     kinetic-energy cut-off    =      80.0000  Ry
     charge density cut-off    =     640.0000  Ry
     convergence threshold     =      1.0E-14
     beta                      =       0.7000
     number of iterations used =            4
     Exchange-correlation= PBE
                           (   1   4   3   4   0   0   0)

     celldm(1)=   10.86146  celldm(2)=    0.00000  celldm(3)=    0.00000
     celldm(4)=    0.00000  celldm(5)=    0.00000  celldm(6)=    0.00000

     crystal axes: (cart. coord. in units of alat)
               a(1) = ( -0.5000  0.0000  0.5000 )
               a(2) = (  0.0000  0.5000  0.5000 )
               a(3) = ( -0.5000  0.5000  0.0000 )

     reciprocal axes: (cart. coord. in units 2 pi/alat)
               b(1) = ( -1.0000 -1.0000  1.0000 )
               b(2) = (  1.0000  1.0000  1.0000 )
               b(3) = ( -1.0000  1.0000 -1.0000 )

     Atoms inside the unit cell:

     Cartesian axes

     site n.  atom      mass           positions (alat units)
        1     Ga  69.7230   tau(    1) = (    0.00000    0.00000    0.00000  )
        2     As  74.9216   tau(    2) = (    0.25000    0.25000    0.25000  )

     Computing dynamical matrix for
                    q = (   0.0000000  -1.0000000   0.0000000 )

      9 Sym.Ops. (with q -> -q+G )

     G cutoff = 1912.4796  (  10955 G-vectors)     FFT grid: ( 64, 64, 64)
     G cutoff =  956.2398  (   3868 G-vectors)  smooth grid: ( 45, 45, 45)
     number of k points=   118

     PseudoPot. # 1 for Ga read from file:
     ./Ga.pbe-dn-kjpaw_psl.1.0.0.UPF
     MD5 check sum: 9ec968fb6aa164ad922e5aaa76dd79f0
     Pseudo is Projector augmented-wave + core cor, Zval = 13.0
     Generated using &quot;atomic&quot; code by A. Dal Corso  v.6.3
     Shape of augmentation charge: PSQ
     Using radial grid of 1205 points,  6 beta functions with:
                l(1) =   0
                l(2) =   0
                l(3) =   1
                l(4) =   1
                l(5) =   2
                l(6) =   2
     Q(r) pseudized with 0 coefficients

     PseudoPot. # 2 for As read from file:
     ./As.pbe-n-kjpaw_psl.1.0.0.UPF
     MD5 check sum: 21b474db91924651be503153fb2dbf55
     Pseudo is Projector augmented-wave + core cor, Zval =  5.0
     Generated using &quot;atomic&quot; code by A. Dal Corso  v.6.3
     Shape of augmentation charge: PSQ
     Using radial grid of 1209 points,  4 beta functions with:
                l(1) =   0
                l(2) =   0
                l(3) =   1
                l(4) =   1
     Q(r) pseudized with 0 coefficients

     Mode symmetry, D_2d (-42m) point group:

     Atomic displacements:
     There are    4 irreducible representations

[...]

     Representation     4      2 modes -  To be done

     Alpha used in Ewald sum =   2.8000

[...]

     Representation #   2 mode #   2

[...]

     Representation #   4 modes #   5   6

     Self-consistent Calculation

[...]

      thresh= 3.190E-08 alpha_mix =  0.700 |ddv_scf|^2 =  1.433E-15

     End of self-consistent calculation

     Convergence has been achieved

     Number of q in the star =    3
     List of q in the star:
          1   0.000000000  -1.000000000   0.000000000
          2   0.000000000   0.000000000  -1.000000000
          3  -1.000000000   0.000000000   0.000000000

     Diagonalizing the dynamical matrix

     q = (    0.000000000  -1.000000000   0.000000000 )

     freq (    1) =       2.416954 [THz] =      80.620895 [cm-1]
     freq (    2) =       2.416954 [THz] =      80.620895 [cm-1]
     freq (    3) =       6.194278 [THz] =     206.618888 [cm-1]
     freq (    4) =       6.783115 [THz] =     226.260370 [cm-1]
     freq (    5) =       7.099924 [THz] =     236.827986 [cm-1]
     freq (    6) =       7.099924 [THz] =     236.827986 [cm-1]

     Mode symmetry, D_2d (-42m) point group:

     freq (   1-   2) =         80.6  [cm-1]   --> E    X_5  W_3
     freq (   3-   3) =        206.6  [cm-1]   --> A_1  X_1  W_1
     freq (   4-   4) =        226.3  [cm-1]   --> B_2  X_3  W_2
     freq (   5-   6) =        236.8  [cm-1]   --> E    X_5  W_3

     General routines

     Parallel routines

     INITIALIZATION:

     DYNAMICAL MATRIX:

      General routines

   This run was terminated on:  15:33:11   1Dec2023

   JOB DONE.